29608.33,44.12,48.58
30282.62,43.13,47.5
24804.82,52.66,57.99
29320.72,44.55,49.06
29087.01,44.91,49.45
31955.98,40.88,45.01
32025.21,40.79,44.92
33252.52,39.28,43.26
31792.04,41.09,45.25
29564.55,44.18,48.65
28118.94,46.45,51.16
30733.01,42.5,46.8
28664.97,45.57,50.18
33297.23,39.23,43.2
27508.79,47.48,52.29
32427.53,40.28,44.36
31492.05,41.48,45.68
24464.99,53.39,58.8
30224.19,43.22,47.59
26770.54,48.79,53.73
